20	38
0	3	89
0	9	20
0	16	32
1	6	77
1	15	34
1	19	70
2	4	87
2	5	57
2	10	69
2	14	80
2	17	81
3	10	11
3	11	22
3	17	60
3	19	94
4	9	6
5	6	91
5	8	93
6	13	37
6	15	52
7	9	10
7	17	55
7	18	5
7	19	48
8	9	41
8	10	38
8	11	82
8	14	43
8	16	76
8	18	73
9	11	78
9	16	32
10	12	28
12	13	67
13	16	85
14	15	8
15	18	97
15	19	97
